nNurses = 77;
nHours = 29;
minHours = 4;
maxHours = 11;
maxConsec = 9;
maxPresence = 14;
demand = [19, 21, 20, 25, 25, 20, 23, 20, 20, 20, 22, 17, 19, 21, 20, 17, 16, 15, 15, 15, 14, 14, 15, 14, 10, 9, 12, 8, 6];
